50
    93    56    76    47    35    62    22    44    93    35    57    52    83    17    54    35    65    19    80    72    36    14    91    58    35    41    35     2    42     8    47    31    79    83    58    87     5     6    86    25    22    77    40    20    74    65    20    59    41     4
     9    10     3     9     9     2     3     5     2     5     4     5     4     7     9     2     8     3     5     2     2     8     7     8     7     7     7     4     5     6     4     3     9     8     5    10     7     9     4     4     6     1     2     2     8     8     7     2     5     4
   798   907   935  1111   951   877  1161   757   778  1009   723   770  1009  1191  1181   821  1092   853  1002   887  1111   922   941  1187  1088   766  1064   909   996  1104   900   996  1017   946   749   980  1075   974   876   806  1090   973   923   997   997   823   999  1156   994   779
